c WARNING: for repeatability, setting FPU to use double precision
d VARIABLES            123146       
d CONSTRAINTS          546672       
c ============================[ Problem Statistics ]=============================
c |                                                                             |
c |  Number of variables:        123146                                         |
c |  Number of clauses:          546672                                         |
c |  Parse time:                   0.08 s                                       |
c |                                                                             |
c ============================[ Search Statistics ]==============================
c | Conflicts |          ORIGINAL         |          LEARNT          | Progress |
c |           |    Vars  Clauses Literals |    Limit  Clauses Lit/Cl |          |
c ===============================================================================
c |       100 |  104223   492792  1194048 |   180690       99     39 | 15.366 % |
c |       250 |  104223   492792  1194048 |   198759      249     29 | 15.366 % |
c |       475 |  104223   492597  1193580 |   218635      474     56 | 15.366 % |
c |       812 |  104223   492597  1193580 |   240498      811     56 | 15.366 % |
c |      1318 |  104223   492597  1193580 |   264548     1317     78 | 15.366 % |
c |      2077 |  104223   492597  1193580 |   291003     2076     78 | 15.366 % |
c |      3216 |  104223   492597  1193580 |   320104     3215     92 | 15.366 % |
c |      4924 |  104223   492597  1193580 |   352114     4923     91 | 15.366 % |
c |      7486 |  104223   492597  1193580 |   387325     7485    103 | 15.366 % |
c |     11330 |  104223   492597  1193580 |   426058    11329    103 | 15.366 % |
c |     17096 |  104223   492597  1193580 |   468664    17095    112 | 15.366 % |
c |     25745 |  104223   492597  1193580 |   515530    25744    114 | 15.366 % |
c |     38719 |  104223   492597  1193580 |   567083    38718    121 | 15.366 % |
c |     58180 |  104223   492597  1193580 |   623792    58179    123 | 15.366 % |
c |     87372 |  104223   492597  1193580 |   686171    87371    122 | 15.366 % |
c |    131161 |  104223   492597  1193580 |   754788   131160    124 | 15.366 % |
c |    196845 |  104223   492597  1193580 |   830267   196844    118 | 15.366 % |
c |    295371 |  104223   492597  1193580 |   913294   295370    118 | 15.366 % |
c |    443160 |  104223   492597  1193580 |  1004623   443159    126 | 15.366 % |
c |    664843 |  104223   492597  1193580 |  1105086   664842    133 | 15.366 % |
c |    997368 |  104223   492597  1193580 |  1215594   997367    131 | 15.366 % |
c |   1496156 |  104223   492597  1193580 |  1337154   285544    121 | 15.366 % |
c ===============================================================================
c restarts              : 4093
c conflicts             : 2122573        (1184 /sec)
c decisions             : 5352481        (0.00 % random) (2985 /sec)
c propagations          : 3003566586     (1674796 /sec)
c conflict literals     : 301433619      (42.00 % deleted)
d RESTARTS             4093
d FAILURES             2122573      
d NODES                5352481      
d BACKTRACKS           5352481      
d PROPAGATIONS         3003566586   
d NOGOODSIZE           142.01 
d MEMORY               1035.00 
d TIME                 1793.39 

s UNKNOWN
